639
3797
9793
3645
6581
6852
5105
4593
2803
6415
2327
8118
711
1089
1068
8379
6662
9197
3838
1979
5462
6057
1298
7484
8556
10188
9103
4652
739
2789
6928
4107
681
6335
4939
10013
8792
8356
4367
1949
4898
4869
9664
4401
5813
3216
2847
3843
4828
10106
